(set-logic QF_S)
(declare-fun var_0xINPUT_41583 () String)
(assert (and (not (= var_0xINPUT_41583 "qXdHDo7IZR")) (= (len var_0xINPUT_41583) 0) (not (= var_0xINPUT_41583 "qXdHDo7IZR")) (not (= var_0xINPUT_41583 "qXdHDo7IZR")) (not (= (len var_0xINPUT_41583) 0)) (= (len var_0xINPUT_41583) 0) (= (len var_0xINPUT_41583) 0) (= (len var_0xINPUT_41583) 0) (not (= (len var_0xINPUT_41583) 0)) (= (len var_0xINPUT_41583) 0) (= (len var_0xINPUT_41583) 0) (= (len var_0xINPUT_41583) 0) (not (= (len var_0xINPUT_41583) 0)) (= (len var_0xINPUT_41583) 0) (= (len var_0xINPUT_41583) 0) (= (len var_0xINPUT_41583) 0) (not (= (len var_0xINPUT_41583) 0)) (= (len var_0xINPUT_41583) 0)))
(check-sat var_0xINPUT_41583)